results_rootrelaxation/bin012_050_003.srr.sol
solution status: optimal solution found
objective value:                                    0
_var26_                             0.307784772937129 	(obj:0)
_var291_                            0.174296986485352 	(obj:0)
_var312_                            0.339494669688573 	(obj:0)
_var501_                           0.0541492487198921 	(obj:0)
_var655_                            0.047178712331067 	(obj:0)
_var673_                            0.497654662973223 	(obj:0)
_var674_                           0.0948207840174611 	(obj:0)
_var677_                            0.101374968521779 	(obj:0)
_var678_                            0.117827583312348 	(obj:0)
_var679_                           0.0338252329388051 	(obj:0)
_var680_                            0.470779820364307 	(obj:0)
_var681_                            0.349712079241164 	(obj:0)
_var682_                           0.0389456895828117 	(obj:0)
_var689_                             0.10380928397549 	(obj:0)
_var690_                            0.277115755896919 	(obj:0)
_var694_                            0.345572064131617 	(obj:0)
_var699_                            0.119106858054226 	(obj:0)
_var702_                            0.239999999999999 	(obj:0)
_var703_                            0.084264249139597 	(obj:0)
_var707_                            0.300011751867706 	(obj:0)
_var709_                           0.0366154621002255 	(obj:0)
_var710_                           0.0117753714429588 	(obj:0)
_var711_                             0.22577688239738 	(obj:0)
_var712_                           0.0998808024846792 	(obj:0)
_var714_                            0.082746579367076 	(obj:0)
_var715_                           0.0337681524385109 	(obj:0)
_var720_                             0.31023923444976 	(obj:0)
_var721_                            0.016993200705111 	(obj:0)
_var723_                            0.225172500629564 	(obj:0)
_var724_                            0.160198102912783 	(obj:0)
_var726_                            0.118411819021236 	(obj:0)
_var728_                            0.313512969025435 	(obj:0)
_var733_                            0.356652396541589 	(obj:0)
_var736_                            0.139890875514143 	(obj:0)
_var737_                            0.410768068496599 	(obj:0)
_var742_                            0.158811382523299 	(obj:0)
_var745_                           0.0868328716528179 	(obj:0)
_var748_                           0.0141727524553005 	(obj:0)
_var750_                            0.104239066565935 	(obj:0)
_var752_                             0.32433811802233 	(obj:0)
_var755_                            0.110390329891717 	(obj:0)
_var758_                           0.0285939729707059 	(obj:0)
_var762_                           0.0624863594392683 	(obj:0)
_var765_                            0.171657852765883 	(obj:0)
_var767_                            0.277172836397213 	(obj:0)
_var768_                           0.0592965667757976 	(obj:0)
_var771_                             0.15677327289516 	(obj:0)
_var773_                            0.376929404851841 	(obj:0)
_var774_                           0.0660790732812873 	(obj:0)
_var775_                            0.189628137328968 	(obj:0)
_var776_                             0.19131369092588 	(obj:0)
_var779_                           0.0697255099471145 	(obj:0)
_var780_                          0.00700747083018599 	(obj:0)
_var781_                            0.383933518005542 	(obj:0)
_var782_                            0.497654662973223 	(obj:0)
_var783_                           0.0845933014354074 	(obj:0)
_var784_                            0.165751699823723 	(obj:0)
_var785_                            0.196319986569297 	(obj:0)
_var786_                            0.130408797112396 	(obj:0)
_var787_                            0.286450096533202 	(obj:0)
_var788_                           0.0855435238814752 	(obj:0)
_var796_                           0.0737681524385128 	(obj:0)
