results_rootrelaxation/bin012_050_003.srr.log
SCIP version 8.0.3.5 [precision: 8 byte] [memory: block] [mode: optimized] [LP solver: Soplex 6.0.1.3] [GitHash: 438792519e]
Copyright (c) 2002-2023 Zuse Institute Berlin (ZIB)

External libraries: 
  Readline 8.1         GNU library for command line editing (gnu.org/s/readline)
  Soplex 6.0.1.3       Linear Programming Solver developed at Zuse Institute Berlin (soplex.zib.de) [GitHash: 713be0fe]
  CppAD 20180000.0     Algorithmic Differentiation of C++ algorithms developed by B. Bell (github.com/coin-or/CppAD)
  ZLIB 1.2.11          General purpose compression library by J. Gailly and M. Adler (zlib.net)
  bliss 0.77           Computing Graph Automorphism Groups by T. Junttila and P. Kaski (www.tcs.hut.fi/Software/bliss/)

user parameter file <scip.set> not found - using default parameters

srr/relaxation = TRUE

read problem <instances/bin012_050_003.srr>
============

Original problem: 
original problem has 0 variables (0 bin, 0 int, 0 impl, 0 cont) and 77 constraints

presolving:
presolving (1 rounds: 1 fast, 1 medium, 1 exhaustive):
 0 deleted vars, 0 deleted constraints, 0 added constraints, 0 tightened bounds, 0 added holes, 0 changed sides, 0 changed coefficients
 0 implications, 0 cliques
presolved problem has 0 variables (0 bin, 0 int, 0 impl, 0 cont) and 77 constraints
     77 constraints of type <linear>
Presolving Time: 0.00

 time | node  | left  |LP iter|LP it/n|mem/heur|mdpt |vars |cons |rows |cuts |sepa|confs|strbr|  dualbound   | primalbound  |  gap   | compl. 
  0.0s|     1 |     0 |     1 |     - |   710k |   0 |   1 |  77 |  77 |   0 |  0 |   0 |   0 |      --      |      --      |    Inf | unknown
r 0.0s|     1 |     0 |   683 |     - |simplero|   0 | 645 |  77 |  77 |   0 |  0 |   0 |   0 |      --      | 1.314303e+01 |    Inf | unknown
r 0.0s|     1 |     0 |   703 |     - |simplero|   0 | 656 |  77 |  77 |   0 |  0 |   0 |   0 |      --      | 1.265997e+01 |    Inf | unknown
r 0.0s|     1 |     0 |   742 |     - |simplero|   0 | 667 |  77 |  77 |   0 |  0 |   0 |   0 |      --      | 1.134524e+01 |    Inf | unknown
r 0.1s|     1 |     0 |   786 |     - |simplero|   0 | 678 |  77 |  77 |   0 |  0 |   0 |   0 |      --      | 1.057584e+01 |    Inf | unknown
r 0.1s|     1 |     0 |   837 |     - |simplero|   0 | 689 |  77 |  77 |   0 |  0 |   0 |   0 |      --      | 8.988451e+00 |    Inf | unknown
r 0.1s|     1 |     0 |   896 |     - |simplero|   0 | 700 |  77 |  77 |   0 |  0 |   0 |   0 |      --      | 6.898365e+00 |    Inf | unknown
r 0.1s|     1 |     0 |   923 |     - |simplero|   0 | 700 |  77 |  77 |   0 |  0 |   0 |   0 |      --      | 6.613325e+00 |    Inf | unknown
r 0.1s|     1 |     0 |   937 |     - |simplero|   0 | 700 |  77 |  77 |   0 |  0 |   0 |   0 |      --      | 6.601602e+00 |    Inf | unknown
r 0.1s|     1 |     0 |   938 |     - |simplero|   0 | 700 |  77 |  77 |   0 |  0 |   0 |   0 |      --      | 6.601136e+00 |    Inf | unknown
r 0.1s|     1 |     0 |  1000 |     - |simplero|   0 | 711 |  77 |  77 |   0 |  0 |   0 |   0 |      --      | 5.356594e+00 |    Inf | unknown
r 0.1s|     1 |     0 |  1006 |     - |simplero|   0 | 711 |  77 |  77 |   0 |  0 |   0 |   0 |      --      | 5.340208e+00 |    Inf | unknown
r 0.1s|     1 |     0 |  1035 |     - |simplero|   0 | 722 |  77 |  77 |   0 |  0 |   0 |   0 |      --      | 3.980438e+00 |    Inf | unknown
r 0.1s|     1 |     0 |  1047 |     - |simplero|   0 | 722 |  77 |  77 |   0 |  0 |   0 |   0 |      --      | 3.850097e+00 |    Inf | unknown
r 0.1s|     1 |     0 |  1052 |     - |simplero|   0 | 722 |  77 |  77 |   0 |  0 |   0 |   0 |      --      | 3.844401e+00 |    Inf | unknown
 time | node  | left  |LP iter|LP it/n|mem/heur|mdpt |vars |cons |rows |cuts |sepa|confs|strbr|  dualbound   | primalbound  |  gap   | compl. 
r 0.1s|     1 |     0 |  1081 |     - |simplero|   0 | 733 |  77 |  77 |   0 |  0 |   0 |   0 |      --      | 3.072049e+00 |    Inf | unknown
r 0.1s|     1 |     0 |  1091 |     - |simplero|   0 | 733 |  77 |  77 |   0 |  0 |   0 |   0 |      --      | 3.037006e+00 |    Inf | unknown
r 0.1s|     1 |     0 |  1140 |     - |simplero|   0 | 744 |  77 |  77 |   0 |  0 |   0 |   0 |      --      | 2.369865e+00 |    Inf | unknown
r 0.1s|     1 |     0 |  1144 |     - |simplero|   0 | 744 |  77 |  77 |   0 |  0 |   0 |   0 |      --      | 2.356932e+00 |    Inf | unknown
r 0.1s|     1 |     0 |  1152 |     - |simplero|   0 | 744 |  77 |  77 |   0 |  0 |   0 |   0 |      --      | 2.349886e+00 |    Inf | unknown
r 0.1s|     1 |     0 |  1193 |     - |simplero|   0 | 755 |  77 |  77 |   0 |  0 |   0 |   0 |      --      | 1.800721e+00 |    Inf | unknown
r 0.1s|     1 |     0 |  1213 |     - |simplero|   0 | 755 |  77 |  77 |   0 |  0 |   0 |   0 |      --      | 1.722148e+00 |    Inf | unknown
r 0.1s|     1 |     0 |  1214 |     - |simplero|   0 | 755 |  77 |  77 |   0 |  0 |   0 |   0 |      --      | 1.721752e+00 |    Inf | unknown
r 0.1s|     1 |     0 |  1257 |     - |simplero|   0 | 766 |  77 |  77 |   0 |  0 |   0 |   0 |      --      | 1.083357e+00 |    Inf | unknown
r 0.1s|     1 |     0 |  1289 |     - |simplero|   0 | 777 |  77 |  77 |   0 |  0 |   0 |   0 |      --      | 8.567045e-01 |    Inf | unknown
r 0.1s|     1 |     0 |  1315 |     - |simplero|   0 | 777 |  77 |  77 |   0 |  0 |   0 |   0 |      --      | 7.327071e-01 |    Inf | unknown
r 0.1s|     1 |     0 |  1359 |     - |simplero|   0 | 788 |  77 |  77 |   0 |  0 |   0 |   0 |      --      | 1.259908e-01 |    Inf | unknown
r 0.1s|     1 |     0 |  1367 |     - |simplero|   0 | 788 |  77 |  77 |   0 |  0 |   0 |   0 |      --      | 9.922044e-02 |    Inf | unknown
r 0.1s|     1 |     0 |  1370 |     - |simplero|   0 | 788 |  77 |  77 |   0 |  0 |   0 |   0 |      --      | 9.755652e-02 |    Inf | unknown
r 0.1s|     1 |     0 |  1379 |     - |simplero|   0 | 799 |  77 |  77 |   0 |  0 |   0 |   0 |      --      | 0.000000e+00 |    Inf | unknown
 time | node  | left  |LP iter|LP it/n|mem/heur|mdpt |vars |cons |rows |cuts |sepa|confs|strbr|  dualbound   | primalbound  |  gap   | compl. 
  0.1s|     1 |     0 |  1380 |     - |  3733k |   0 | 800 |  77 |  77 |   0 |  0 |   0 |   0 | 0.000000e+00 | 0.000000e+00 |   0.00%| unknown
  0.1s|     1 |     0 |  1380 |     - |  3733k |   0 | 800 |  77 |  77 |   0 |  0 |   0 |   0 | 0.000000e+00 | 0.000000e+00 |   0.00%| unknown

SCIP Status        : problem is solved [optimal solution found]
Solving Time (sec) : 0.08
Solving Nodes      : 1
Primal Bound       : +0.00000000000000e+00 (29 solutions)
Dual Bound         : +0.00000000000000e+00
Gap                : 0.00 %

written transformed problem to file <results_rootrelaxation/bin012_050_003.srr.lp>
written transformed problem to file <results_rootrelaxation/bin012_050_003.srr.cip>


SCIP version 8.0.3.5 [precision: 8 byte] [memory: block] [mode: optimized] [LP solver: Soplex 6.0.1.3] [GitHash: 438792519e]
Copyright (c) 2002-2023 Zuse Institute Berlin (ZIB)

External libraries: 
  Readline 8.1         GNU library for command line editing (gnu.org/s/readline)
  Soplex 6.0.1.3       Linear Programming Solver developed at Zuse Institute Berlin (soplex.zib.de) [GitHash: 713be0fe]
  CppAD 20180000.0     Algorithmic Differentiation of C++ algorithms developed by B. Bell (github.com/coin-or/CppAD)
  ZLIB 1.2.11          General purpose compression library by J. Gailly and M. Adler (zlib.net)
  bliss 0.77           Computing Graph Automorphism Groups by T. Junttila and P. Kaski (www.tcs.hut.fi/Software/bliss/)

user parameter file <scip.set> not found - using default parameters

srr/relaxation = TRUE

read problem <instances/bin012_050_003.srr>
============

Original problem: 
original problem has 0 variables (0 bin, 0 int, 0 impl, 0 cont) and 77 constraints

presolving:
presolving (1 rounds: 1 fast, 1 medium, 1 exhaustive):
 0 deleted vars, 0 deleted constraints, 0 added constraints, 0 tightened bounds, 0 added holes, 0 changed sides, 0 changed coefficients
 0 implications, 0 cliques
presolved problem has 0 variables (0 bin, 0 int, 0 impl, 0 cont) and 77 constraints
     77 constraints of type <linear>
Presolving Time: 0.00

 time | node  | left  |LP iter|LP it/n|mem/heur|mdpt |vars |cons |rows |cuts |sepa|confs|strbr|  dualbound   | primalbound  |  gap   | compl. 
  0.0s|     1 |     0 |     1 |     - |   710k |   0 |   1 |  77 |  77 |   0 |  0 |   0 |   0 |      --      |      --      |    Inf | unknown
r 0.0s|     1 |     0 |   683 |     - |simplero|   0 | 645 |  77 |  77 |   0 |  0 |   0 |   0 |      --      | 1.314303e+01 |    Inf | unknown
r 0.0s|     1 |     0 |   703 |     - |simplero|   0 | 656 |  77 |  77 |   0 |  0 |   0 |   0 |      --      | 1.265997e+01 |    Inf | unknown
r 0.0s|     1 |     0 |   742 |     - |simplero|   0 | 667 |  77 |  77 |   0 |  0 |   0 |   0 |      --      | 1.134524e+01 |    Inf | unknown
r 0.1s|     1 |     0 |   786 |     - |simplero|   0 | 678 |  77 |  77 |   0 |  0 |   0 |   0 |      --      | 1.057584e+01 |    Inf | unknown
r 0.1s|     1 |     0 |   837 |     - |simplero|   0 | 689 |  77 |  77 |   0 |  0 |   0 |   0 |      --      | 8.988451e+00 |    Inf | unknown
r 0.1s|     1 |     0 |   896 |     - |simplero|   0 | 700 |  77 |  77 |   0 |  0 |   0 |   0 |      --      | 6.898365e+00 |    Inf | unknown
r 0.1s|     1 |     0 |   923 |     - |simplero|   0 | 700 |  77 |  77 |   0 |  0 |   0 |   0 |      --      | 6.613325e+00 |    Inf | unknown
r 0.1s|     1 |     0 |   937 |     - |simplero|   0 | 700 |  77 |  77 |   0 |  0 |   0 |   0 |      --      | 6.601602e+00 |    Inf | unknown
r 0.1s|     1 |     0 |   938 |     - |simplero|   0 | 700 |  77 |  77 |   0 |  0 |   0 |   0 |      --      | 6.601136e+00 |    Inf | unknown
r 0.1s|     1 |     0 |  1000 |     - |simplero|   0 | 711 |  77 |  77 |   0 |  0 |   0 |   0 |      --      | 5.356594e+00 |    Inf | unknown
r 0.1s|     1 |     0 |  1006 |     - |simplero|   0 | 711 |  77 |  77 |   0 |  0 |   0 |   0 |      --      | 5.340208e+00 |    Inf | unknown
r 0.1s|     1 |     0 |  1035 |     - |simplero|   0 | 722 |  77 |  77 |   0 |  0 |   0 |   0 |      --      | 3.980438e+00 |    Inf | unknown
r 0.1s|     1 |     0 |  1047 |     - |simplero|   0 | 722 |  77 |  77 |   0 |  0 |   0 |   0 |      --      | 3.850097e+00 |    Inf | unknown
r 0.1s|     1 |     0 |  1052 |     - |simplero|   0 | 722 |  77 |  77 |   0 |  0 |   0 |   0 |      --      | 3.844401e+00 |    Inf | unknown
 time | node  | left  |LP iter|LP it/n|mem/heur|mdpt |vars |cons |rows |cuts |sepa|confs|strbr|  dualbound   | primalbound  |  gap   | compl. 
r 0.1s|     1 |     0 |  1081 |     - |simplero|   0 | 733 |  77 |  77 |   0 |  0 |   0 |   0 |      --      | 3.072049e+00 |    Inf | unknown
r 0.1s|     1 |     0 |  1091 |     - |simplero|   0 | 733 |  77 |  77 |   0 |  0 |   0 |   0 |      --      | 3.037006e+00 |    Inf | unknown
r 0.1s|     1 |     0 |  1140 |     - |simplero|   0 | 744 |  77 |  77 |   0 |  0 |   0 |   0 |      --      | 2.369865e+00 |    Inf | unknown
r 0.1s|     1 |     0 |  1144 |     - |simplero|   0 | 744 |  77 |  77 |   0 |  0 |   0 |   0 |      --      | 2.356932e+00 |    Inf | unknown
r 0.1s|     1 |     0 |  1152 |     - |simplero|   0 | 744 |  77 |  77 |   0 |  0 |   0 |   0 |      --      | 2.349886e+00 |    Inf | unknown
r 0.1s|     1 |     0 |  1193 |     - |simplero|   0 | 755 |  77 |  77 |   0 |  0 |   0 |   0 |      --      | 1.800721e+00 |    Inf | unknown
r 0.1s|     1 |     0 |  1213 |     - |simplero|   0 | 755 |  77 |  77 |   0 |  0 |   0 |   0 |      --      | 1.722148e+00 |    Inf | unknown
r 0.1s|     1 |     0 |  1214 |     - |simplero|   0 | 755 |  77 |  77 |   0 |  0 |   0 |   0 |      --      | 1.721752e+00 |    Inf | unknown
r 0.1s|     1 |     0 |  1257 |     - |simplero|   0 | 766 |  77 |  77 |   0 |  0 |   0 |   0 |      --      | 1.083357e+00 |    Inf | unknown
r 0.1s|     1 |     0 |  1289 |     - |simplero|   0 | 777 |  77 |  77 |   0 |  0 |   0 |   0 |      --      | 8.567045e-01 |    Inf | unknown
r 0.1s|     1 |     0 |  1315 |     - |simplero|   0 | 777 |  77 |  77 |   0 |  0 |   0 |   0 |      --      | 7.327071e-01 |    Inf | unknown
r 0.1s|     1 |     0 |  1359 |     - |simplero|   0 | 788 |  77 |  77 |   0 |  0 |   0 |   0 |      --      | 1.259908e-01 |    Inf | unknown
r 0.1s|     1 |     0 |  1367 |     - |simplero|   0 | 788 |  77 |  77 |   0 |  0 |   0 |   0 |      --      | 9.922044e-02 |    Inf | unknown
r 0.1s|     1 |     0 |  1370 |     - |simplero|   0 | 788 |  77 |  77 |   0 |  0 |   0 |   0 |      --      | 9.755652e-02 |    Inf | unknown
r 0.1s|     1 |     0 |  1379 |     - |simplero|   0 | 799 |  77 |  77 |   0 |  0 |   0 |   0 |      --      | 0.000000e+00 |    Inf | unknown
 time | node  | left  |LP iter|LP it/n|mem/heur|mdpt |vars |cons |rows |cuts |sepa|confs|strbr|  dualbound   | primalbound  |  gap   | compl. 
  0.1s|     1 |     0 |  1380 |     - |  3733k |   0 | 800 |  77 |  77 |   0 |  0 |   0 |   0 | 0.000000e+00 | 0.000000e+00 |   0.00%| unknown
  0.1s|     1 |     0 |  1380 |     - |  3733k |   0 | 800 |  77 |  77 |   0 |  0 |   0 |   0 | 0.000000e+00 | 0.000000e+00 |   0.00%| unknown

SCIP Status        : problem is solved [optimal solution found]
Solving Time (sec) : 0.10
Solving Nodes      : 1
Primal Bound       : +0.00000000000000e+00 (29 solutions)
Dual Bound         : +0.00000000000000e+00
Gap                : 0.00 %

written transformed problem to file <results_rootrelaxation/bin012_050_003.srr.lp>
written transformed problem to file <results_rootrelaxation/bin012_050_003.srr.cip>

written solution information to file <results_rootrelaxation/bin012_050_003.srr.sol>



